\ Model Bus Reassignment_copy
\ LP format - for model browsing. Use MPS format to capture full model detail.
Minimize
 
Subject To
 toAssign[42552][40739]: x[42644,_42552][40674,40739]
   + x[42644,_42552][40675,40739] + x[42644,_42552][40676,40739]
   + x[42644,_42552][40735,40739] + x[42644,_42552][40736,40739]
   + x[42644,_42552][40737,40739] + x[42644,_42552][40738,40739]
   + x[42644,_42552][40797,40739] + x[42644,_42552][40798,40739]
   + x[42644,_42552][40799,40739] + x[42644,_42552][40866,40739]
   + x[42644,_42552][40867,40739] + x[42644,_42552][40868,40739]
   + x[42644,_42552][40869,40739] + x[42644,_42552][40929,40739]
   + x[42644,_42552][40930,40739] + x[42644,_42552][40931,40739]
   + x[42644,_42552][40990,40739] + x[42644,_42552][40991,40739]
   + x[42644,_42552][41051,40739] + x[42644,_42552][41052,40739]
   + x[42644,_42552][41053,40739] + x[42644,_42552][41111,40739]
   + x[42644,_42552][41112,40739] + x[42644,_42552][41113,40739]
   + x[42644,_42552][41172,40739] + x[42644,_42552][41173,40739]
   + x[42644,_42552][41174,40739] + x[42644,_42552][41231,40739]
   + x[42644,_42552][41232,40739] + x[42644,_42552][41264,40739]
   + x[42644,_42552][41265,40739] + x[42644,_42552][41295,40739]
   + x[42644,_42552][42545,40739] + x[42644,_42552][42546,40739]
   + x[42644,_42552][42547,40739] + x[42644,_42552][42548,40739]
   + x[42644,_42552][42549,40739] + x[42644,_42552][42628,40739]
   + x[42644,_42552][42629,40739] + x[42644,_42552][42630,40739]
   + x[42644,_42552][42631,40739] = 1
 departureTimeUp[42644,_42552][40674,40739]:
   4.56e+06 x[42644,_42552][40674,40739] <= 600000
 departureTimeUp[42644,_42552][40675,40739]:
   3.66e+06 x[42644,_42552][40675,40739] <= 600000
 departureTimeUp[42644,_42552][40676,40739]:
   2.88e+06 x[42644,_42552][40676,40739] <= 600000
 departureTimeUp[42644,_42552][40735,40739]:
   3.48e+06 x[42644,_42552][40735,40739] <= 600000
 departureTimeUp[42644,_42552][40736,40739]:
   2.7e+06 x[42644,_42552][40736,40739] <= 600000
 departureTimeUp[42644,_42552][40737,40739]:
   1.8e+06 x[42644,_42552][40737,40739] <= 600000
 departureTimeUp[42644,_42552][40738,40739]:
   960000 x[42644,_42552][40738,40739] <= 600000
 departureTimeUp[42644,_42552][40797,40739]:
   3.54e+06 x[42644,_42552][40797,40739] <= 600000
 departureTimeUp[42644,_42552][40798,40739]:
   2.64e+06 x[42644,_42552][40798,40739] <= 600000
 departureTimeUp[42644,_42552][40799,40739]:
   1.74e+06 x[42644,_42552][40799,40739] <= 600000
 departureTimeUp[42644,_42552][40866,40739]:
   3.9e+06 x[42644,_42552][40866,40739] <= 600000
 departureTimeUp[42644,_42552][40867,40739]:
   3e+06 x[42644,_42552][40867,40739] <= 600000
 departureTimeUp[42644,_42552][40868,40739]:
   2.1e+06 x[42644,_42552][40868,40739] <= 600000
 departureTimeUp[42644,_42552][40869,40739]:
   1.2e+06 x[42644,_42552][40869,40739] <= 600000
 departureTimeUp[42644,_42552][40929,40739]:
   3.66e+06 x[42644,_42552][40929,40739] <= 600000
 departureTimeUp[42644,_42552][40930,40739]:
   2.76e+06 x[42644,_42552][40930,40739] <= 600000
 departureTimeUp[42644,_42552][40931,40739]:
   1.86e+06 x[42644,_42552][40931,40739] <= 600000
 departureTimeUp[42644,_42552][40990,40739]:
   4.38e+06 x[42644,_42552][40990,40739] <= 600000
 departureTimeUp[42644,_42552][40991,40739]:
   3.48e+06 x[42644,_42552][40991,40739] <= 600000
 departureTimeUp[42644,_42552][41051,40739]:
   4.26e+06 x[42644,_42552][41051,40739] <= 600000
 departureTimeUp[42644,_42552][41052,40739]:
   3.3e+06 x[42644,_42552][41052,40739] <= 600000
 departureTimeUp[42644,_42552][41053,40739]:
   2.4e+06 x[42644,_42552][41053,40739] <= 600000
 departureTimeUp[42644,_42552][41111,40739]:
   3.66e+06 x[42644,_42552][41111,40739] <= 600000
 departureTimeUp[42644,_42552][41112,40739]:
   2.76e+06 x[42644,_42552][41112,40739] <= 600000
 departureTimeUp[42644,_42552][41113,40739]:
   1.86e+06 x[42644,_42552][41113,40739] <= 600000
 departureTimeUp[42644,_42552][41172,40739]:
   3.6e+06 x[42644,_42552][41172,40739] <= 600000
 departureTimeUp[42644,_42552][41173,40739]:
   2.7e+06 x[42644,_42552][41173,40739] <= 600000
 departureTimeUp[42644,_42552][41174,40739]:
   1.8e+06 x[42644,_42552][41174,40739] <= 600000
 departureTimeUp[42644,_42552][41231,40739]:
   4.26e+06 x[42644,_42552][41231,40739] <= 600000
 departureTimeUp[42644,_42552][41232,40739]:
   2.46e+06 x[42644,_42552][41232,40739] <= 600000
 departureTimeUp[42644,_42552][41264,40739]:
   3.66e+06 x[42644,_42552][41264,40739] <= 600000
 departureTimeUp[42644,_42552][41265,40739]:
   1.86e+06 x[42644,_42552][41265,40739] <= 600000
 departureTimeUp[42644,_42552][41295,40739]:
   3.72e+06 x[42644,_42552][41295,40739] <= 600000
 departureTimeUp[42644,_42552][42545,40739]:
   4.2e+06 x[42644,_42552][42545,40739] <= 600000
 departureTimeUp[42644,_42552][42546,40739]:
   3.6e+06 x[42644,_42552][42546,40739] <= 600000
 departureTimeUp[42644,_42552][42547,40739]:
   3e+06 x[42644,_42552][42547,40739] <= 600000
 departureTimeUp[42644,_42552][42548,40739]:
   2.4e+06 x[42644,_42552][42548,40739] <= 600000
 departureTimeUp[42644,_42552][42549,40739]:
   1.8e+06 x[42644,_42552][42549,40739] <= 600000
 departureTimeUp[42644,_42552][42628,40739]:
   3.72e+06 x[42644,_42552][42628,40739] <= 600000
 departureTimeUp[42644,_42552][42629,40739]:
   3.12e+06 x[42644,_42552][42629,40739] <= 600000
 departureTimeUp[42644,_42552][42630,40739]:
   2.52e+06 x[42644,_42552][42630,40739] <= 600000
 departureTimeUp[42644,_42552][42631,40739]:
   1.92e+06 x[42644,_42552][42631,40739] <= 600000
Bounds
Binaries
 x[42644,_42552][40674,40739] x[42644,_42552][40675,40739]
 x[42644,_42552][40676,40739] x[42644,_42552][40735,40739]
 x[42644,_42552][40736,40739] x[42644,_42552][40737,40739]
 x[42644,_42552][40738,40739] x[42644,_42552][40797,40739]
 x[42644,_42552][40798,40739] x[42644,_42552][40799,40739]
 x[42644,_42552][40866,40739] x[42644,_42552][40867,40739]
 x[42644,_42552][40868,40739] x[42644,_42552][40869,40739]
 x[42644,_42552][40929,40739] x[42644,_42552][40930,40739]
 x[42644,_42552][40931,40739] x[42644,_42552][40990,40739]
 x[42644,_42552][40991,40739] x[42644,_42552][41051,40739]
 x[42644,_42552][41052,40739] x[42644,_42552][41053,40739]
 x[42644,_42552][41111,40739] x[42644,_42552][41112,40739]
 x[42644,_42552][41113,40739] x[42644,_42552][41172,40739]
 x[42644,_42552][41173,40739] x[42644,_42552][41174,40739]
 x[42644,_42552][41231,40739] x[42644,_42552][41232,40739]
 x[42644,_42552][41264,40739] x[42644,_42552][41265,40739]
 x[42644,_42552][41295,40739] x[42644,_42552][42545,40739]
 x[42644,_42552][42546,40739] x[42644,_42552][42547,40739]
 x[42644,_42552][42548,40739] x[42644,_42552][42549,40739]
 x[42644,_42552][42628,40739] x[42644,_42552][42629,40739]
 x[42644,_42552][42630,40739] x[42644,_42552][42631,40739]
End
